g3 0 1 0	# problem orth_d4m6_pl
 42 86 1 0 42	# vars, constraints, objectives, ranges, eqns
 41 0	# nonlinear constraints, objectives
 0 0	# network constraints: nonlinear, linear
 41 0 0	# nonlinear vars in constraints, objectives, both
 0 0 0 1	# linear network variables; functions; arith, flags
 0 0 0 0 0	# discrete variables: binary, integer, nonlinear (b,c,o)
 384 1	# nonzeros in Jacobian, gradients
 3 6	# max name lengths: constraints, variables
 0 0 0 0 0	# common exprs: b,c,o,c1,o1
b
0 0 1
0 0 1
0 0 1
0 0 1
0 0 1
0 0 1
0 0 1
0 0 1
0 0 1
0 0 1
0 0 1
0 0 1
0 0 1
0 0 1
0 0 1
0 0 1
0 0 1
0 0 1
0 0 1
0 0 1
0 0 1
0 0 1
0 0 1
0 0 1
0 0 1
0 0 1
0 -1 1
0 0 1
0 -1 1
0 -1 1
0 -1 1
0 -1 1
0 -1 1
0 -1 1
0 -1 1
0 -1 1
0 -1 1
0 -1 1
0 -1 1
0 -1 1
0 -1 1
0 0 1
r
4 0
4 0
4 0
4 0
4 0
4 0
4 0
4 0
4 0
4 0
4 0
4 0
4 0
4 0
4 0
4 0
4 0
4 0
4 0
4 0
4 1
4 1
4 1
4 1
4 1
4 1
4 0
4 0
4 0
4 0
4 0
4 0
4 0
4 0
4 0
4 0
4 0
4 0
4 0
4 0
4 0
4 4
1 0
1 0
1 0
1 0
1 0
1 0
1 0
1 0
1 0
1 0
1 0
1 0
1 0
1 0
1 0
1 0
1 0
1 0
1 0
1 0
1 0
1 0
1 0
1 0
1 0
1 0
1 0
1 0
1 0
1 0
1 0
1 0
1 0
1 0
1 0
1 0
1 0
1 0
1 0
1 0
1 0
1 0
1 0
1 0
C0
o16
o2
o2
v0
v1
v2
C1
o16
o2
o2
v0
v1
v4
C2
o16
o2
o2
v0
v1
v6
C3
o16
o2
o2
v0
v1
v8
C4
o16
o2
o2
v0
v2
v4
C5
o16
o2
o2
v0
v2
v6
C6
o16
o2
o2
v0
v2
v8
C7
o16
o2
o2
v0
v4
v6
C8
o16
o2
o2
v0
v4
v8
C9
o16
o2
o2
v0
v6
v8
C10
o16
o2
o2
v1
v2
v4
C11
o16
o2
o2
v1
v2
v6
C12
o16
o2
o2
v1
v2
v8
C13
o16
o2
o2
v1
v4
v6
C14
o16
o2
o2
v1
v4
v8
C15
o16
o2
o2
v1
v6
v8
C16
o16
o2
o2
v2
v4
v6
C17
o16
o2
o2
v2
v4
v8
C18
o16
o2
o2
v2
v6
v8
C19
o16
o2
o2
v4
v6
v8
C20
o54
10
o2
o5
v26
n2
v16
o2
o5
v28
n2
v17
o2
o5
v29
n2
v18
o2
o5
v30
n2
v19
o2
o5
v31
n2
v20
o2
o5
v32
n2
v21
o2
o5
v33
n2
v22
o2
o5
v34
n2
v23
o2
o5
v35
n2
v24
o2
o5
v36
n2
v25
C21
o54
10
o2
o5
v26
n2
v10
o2
o5
v28
n2
v11
o2
o5
v29
n2
v12
o2
o5
v30
n2
v13
o2
o5
v31
n2
v14
o2
o5
v32
n2
v15
o2
o5
v37
n2
v22
o2
o5
v38
n2
v23
o2
o5
v39
n2
v24
o2
o5
v40
n2
v25
C22
o54
10
o2
o5
v26
n2
v5
o2
o5
v28
n2
v7
o2
o5
v29
n2
v9
o2
o5
v33
n2
v13
o2
o5
v34
n2
v14
o2
o5
v35
n2
v15
o2
o5
v37
n2
v19
o2
o5
v38
n2
v20
o2
o5
v39
n2
v21
o2
o5
v27
n2
v25
C23
o54
10
o2
o5
v26
n2
v3
o2
o5
v30
n2
v7
o2
o5
v31
n2
v9
o2
o5
v33
n2
v11
o2
o5
v34
n2
v12
o2
o5
v36
n2
v15
o2
o5
v37
n2
v17
o2
o5
v38
n2
v18
o2
o5
v40
n2
v21
o2
o5
v27
n2
v24
C24
o54
10
o2
o5
v28
n2
v3
o2
o5
v30
n2
v5
o2
o5
v32
n2
v9
o2
o5
v33
n2
v10
o2
o5
v35
n2
v12
o2
o5
v36
n2
v14
o2
o5
v37
n2
v16
o2
o5
v39
n2
v18
o2
o5
v40
n2
v20
o2
o5
v27
n2
v23
C25
o54
10
o2
o5
v29
n2
v3
o2
o5
v31
n2
v5
o2
o5
v32
n2
v7
o2
o5
v34
n2
v10
o2
o5
v35
n2
v11
o2
o5
v36
n2
v13
o2
o5
v38
n2
v16
o2
o5
v39
n2
v17
o2
o5
v40
n2
v19
o2
o5
v27
n2
v22
C26
o54
3
o2
v26
v32
o16
o2
v28
v31
o2
v29
v30
C27
o54
3
o2
v26
v35
o16
o2
v28
v34
o2
v29
v33
C28
o54
3
o2
v26
v39
o16
o2
v28
v38
o2
v29
v37
C29
o54
3
o2
v26
v36
o16
o2
v30
v34
o2
v31
v33
C30
o54
3
o2
v26
v40
o16
o2
v30
v38
o2
v31
v37
C31
o54
3
o2
v26
v27
o16
o2
v33
v38
o2
v34
v37
C32
o54
3
o2
v28
v36
o16
o2
v30
v35
o2
v32
v33
C33
o54
3
o2
v28
v40
o16
o2
v30
v39
o2
v32
v37
C34
o54
3
o2
v27
v28
o16
o2
v33
v39
o2
v35
v37
C35
o54
3
o2
v29
v36
o16
o2
v31
v35
o2
v32
v34
C36
o54
3
o2
v29
v40
o16
o2
v31
v39
o2
v32
v38
C37
o54
3
o2
v27
v29
o16
o2
v34
v39
o2
v35
v38
C38
o54
3
o2
v27
v30
o16
o2
v33
v40
o2
v36
v37
C39
o54
3
o2
v27
v31
o16
o2
v34
v40
o2
v36
v38
C40
o54
3
o2
v27
v32
o16
o2
v35
v40
o2
v36
v39
C41
n0
C42
n0
C43
n0
C44
n0
C45
n0
C46
n0
C47
n0
C48
n0
C49
n0
C50
n0
C51
n0
C52
n0
C53
n0
C54
n0
C55
n0
C56
n0
C57
n0
C58
n0
C59
n0
C60
n0
C61
n0
C62
n0
C63
n0
C64
n0
C65
n0
C66
n0
C67
n0
C68
n0
C69
n0
C70
n0
C71
n0
C72
n0
C73
n0
C74
n0
C75
n0
C76
n0
C77
n0
C78
n0
C79
n0
C80
n0
C81
n0
C82
n0
C83
n0
C84
n0
C85
n0
O0 0
n0
k41
11
22
33
37
48
52
63
67
78
82
86
90
94
98
102
106
110
114
118
122
126
130
134
138
142
146
159
185
198
211
224
237
250
263
276
289
302
315
328
341
354
J0 4
0 0
1 0
2 0
3 1
J1 4
0 0
1 0
4 0
5 1
J2 4
0 0
1 0
6 0
7 1
J3 4
0 0
1 0
8 0
9 1
J4 4
0 0
2 0
4 0
10 1
J5 4
0 0
2 0
6 0
11 1
J6 4
0 0
2 0
8 0
12 1
J7 4
0 0
4 0
6 0
13 1
J8 4
0 0
4 0
8 0
14 1
J9 4
0 0
6 0
8 0
15 1
J10 4
1 0
2 0
4 0
16 1
J11 4
1 0
2 0
6 0
17 1
J12 4
1 0
2 0
8 0
18 1
J13 4
1 0
4 0
6 0
19 1
J14 4
1 0
4 0
8 0
20 1
J15 4
1 0
6 0
8 0
21 1
J16 4
2 0
4 0
6 0
22 1
J17 4
2 0
4 0
8 0
23 1
J18 4
2 0
6 0
8 0
24 1
J19 4
4 0
6 0
8 0
25 1
J20 20
16 0
17 0
18 0
19 0
20 0
21 0
22 0
23 0
24 0
25 0
26 0
28 0
29 0
30 0
31 0
32 0
33 0
34 0
35 0
36 0
J21 20
10 0
11 0
12 0
13 0
14 0
15 0
22 0
23 0
24 0
25 0
26 0
28 0
29 0
30 0
31 0
32 0
37 0
38 0
39 0
40 0
J22 20
5 0
7 0
9 0
13 0
14 0
15 0
19 0
20 0
21 0
25 0
26 0
27 0
28 0
29 0
33 0
34 0
35 0
37 0
38 0
39 0
J23 20
3 0
7 0
9 0
11 0
12 0
15 0
17 0
18 0
21 0
24 0
26 0
27 0
30 0
31 0
33 0
34 0
36 0
37 0
38 0
40 0
J24 20
3 0
5 0
9 0
10 0
12 0
14 0
16 0
18 0
20 0
23 0
27 0
28 0
30 0
32 0
33 0
35 0
36 0
37 0
39 0
40 0
J25 20
3 0
5 0
7 0
10 0
11 0
13 0
16 0
17 0
19 0
22 0
27 0
29 0
31 0
32 0
34 0
35 0
36 0
38 0
39 0
40 0
J26 6
26 0
28 0
29 0
30 0
31 0
32 0
J27 6
26 0
28 0
29 0
33 0
34 0
35 0
J28 6
26 0
28 0
29 0
37 0
38 0
39 0
J29 6
26 0
30 0
31 0
33 0
34 0
36 0
J30 6
26 0
30 0
31 0
37 0
38 0
40 0
J31 6
26 0
27 0
33 0
34 0
37 0
38 0
J32 6
28 0
30 0
32 0
33 0
35 0
36 0
J33 6
28 0
30 0
32 0
37 0
39 0
40 0
J34 6
27 0
28 0
33 0
35 0
37 0
39 0
J35 6
29 0
31 0
32 0
34 0
35 0
36 0
J36 6
29 0
31 0
32 0
38 0
39 0
40 0
J37 6
27 0
29 0
34 0
35 0
38 0
39 0
J38 6
27 0
30 0
33 0
36 0
37 0
40 0
J39 6
27 0
31 0
34 0
36 0
38 0
40 0
J40 6
27 0
32 0
35 0
36 0
39 0
40 0
J41 6
0 1
1 1
2 1
4 1
6 1
8 1
J42 2
26 1
27 -1
J43 2
27 -1
28 1
J44 2
27 -1
29 1
J45 2
27 -1
30 1
J46 2
27 -1
31 1
J47 2
27 -1
32 1
J48 2
27 -1
33 1
J49 2
27 -1
34 1
J50 2
27 -1
35 1
J51 2
27 -1
36 1
J52 2
27 -1
37 1
J53 2
27 -1
38 1
J54 2
27 -1
39 1
J55 2
27 -1
40 1
J56 2
26 -1
41 -1
J57 2
26 1
41 -1
J58 2
28 -1
41 -1
J59 2
28 1
41 -1
J60 2
29 -1
41 -1
J61 2
29 1
41 -1
J62 2
30 -1
41 -1
J63 2
30 1
41 -1
J64 2
31 -1
41 -1
J65 2
31 1
41 -1
J66 2
32 -1
41 -1
J67 2
32 1
41 -1
J68 2
33 -1
41 -1
J69 2
33 1
41 -1
J70 2
34 -1
41 -1
J71 2
34 1
41 -1
J72 2
35 -1
41 -1
J73 2
35 1
41 -1
J74 2
36 -1
41 -1
J75 2
36 1
41 -1
J76 2
37 -1
41 -1
J77 2
37 1
41 -1
J78 2
38 -1
41 -1
J79 2
38 1
41 -1
J80 2
39 -1
41 -1
J81 2
39 1
41 -1
J82 2
40 -1
41 -1
J83 2
40 1
41 -1
J84 2
27 -1
41 -1
J85 2
27 1
41 -1
G0 1
41 1
